This is Ipopt version 3.12.13, running with linear solver ma57.

Number of nonzeros in equality constraint Jacobian...:        0
Number of nonzeros in inequality constraint Jacobian.:    50544
Number of nonzeros in Lagrangian Hessian.............:       21

Total number of variables............................:        6
                     variables with only lower bounds:        0
                variables with lower and upper bounds:        6
                     variables with only upper bounds:        0
Total number of equality constraints.................:        0
Total number of inequality constraints...............:     8424
        inequality constraints with only lower bounds:        0
   inequality constraints with lower and upper bounds:        0
        inequality constraints with only upper bounds:     8424

iter    objective    inf_pr   inf_du lg(mu)  ||d||  lg(rg) alpha_du alpha_pr  ls
   0  1.2127565e-03 1.50e-02 1.32e+01   0.0 0.00e+00    -  0.00e+00 0.00e+00   0
   1  1.2514362e-03 1.08e-02 6.92e+00  -5.7 1.67e-01    -  4.35e-01 5.65e-01h  1
   2  1.3149489e-03 9.08e-03 6.03e+00  -2.1 3.50e-01    -  5.33e-01 1.03e-01f  1
   3  1.5260198e-03 8.25e-03 1.19e+01  -2.4 6.37e-01    -  3.38e-01 1.49e-01h  1
   4  1.5258099e-03 8.25e-03 3.63e+03  -2.6 1.53e-01    -  9.33e-01 4.63e-03h  1
   5  1.5258318e-03 8.25e-03 3.53e+07  -2.4 4.96e-01    -  9.59e-01 9.83e-05h  1
   6  1.2156878e-03 8.24e-03 1.20e+11   0.5 3.10e+02    -  1.00e+00 1.47e-04f  2
Reallocating memory for MA57: lfact (262315)
   7  1.1793642e-03 8.24e-03 5.03e+14   2.9 2.64e+01    -  1.00e+00 2.36e-04h  1
Reallocating memory for MA57: lfact (462432)
   8  1.0713502e-03 8.24e-03 4.92e+12   3.3 3.24e-01    -  9.90e-01 4.86e-01f  1
   9  1.0725410e-03 8.24e-03 4.32e+04   1.6 5.01e-03    -  1.00e+00 1.00e+00h  1
iter    objective    inf_pr   inf_du lg(mu)  ||d||  lg(rg) alpha_du alpha_pr  ls
  10r 1.0725410e-03 8.24e-03 1.00e+03  -2.1 0.00e+00    -  0.00e+00 2.79e-07R  4
  11r 1.0713387e-03 8.24e-03 2.06e+03  -0.4 1.23e-02    -  5.87e-01 5.12e-02f  1
  12r 1.0436396e-03 8.36e-03 7.14e+02   0.7 1.65e-02    -  5.15e-01 9.33e-01f  1
  13r 1.0150190e-03 8.35e-03 4.24e+02   0.7 2.40e-02    -  1.00e+00 7.48e-01f  1
  14r 1.0058524e-03 8.36e-03 1.08e+00   0.7 2.22e-02    -  1.00e+00 1.00e+00f  1
  15r 1.0217349e-03 8.28e-03 1.49e+01  -0.0 8.48e-03    -  1.00e+00 9.23e-01f  1
  16r 1.0273730e-03 8.25e-03 4.94e+01  -0.7 2.47e-03    -  9.65e-01 8.16e-01f  1
  17r 1.0255304e-03 8.25e-03 3.52e+00  -0.7 1.95e-03    -  1.00e+00 1.00e+00f  1
  18r 1.0262543e-03 8.24e-03 1.96e+01  -1.4 3.22e-04    -  1.00e+00 9.13e-01f  1
  19r 1.0256063e-03 8.24e-03 3.84e+00  -2.0 8.33e-04    -  1.00e+00 1.00e+00f  1
iter    objective    inf_pr   inf_du lg(mu)  ||d||  lg(rg) alpha_du alpha_pr  ls
  20r 1.0251324e-03 8.24e-03 1.60e+00  -2.9 1.32e-03    -  9.81e-01 1.00e+00f  1
  21r 1.0245198e-03 8.24e-03 5.72e-01  -4.6 3.19e-03    -  1.00e+00 1.00e+00f  1
  22r 1.0316949e-03 8.24e-03 2.75e-03  -6.3 6.14e-03    -  1.00e+00 1.00e+00f  1
  23r 1.0455346e-03 8.24e-03 4.04e+00  -8.3 6.28e-03    -  1.00e+00 1.00e+00h  1
  24r 1.0534555e-03 8.24e-03 3.42e-01  -9.0 4.16e-03    -  1.00e+00 1.00e+00h  1
  25r 1.0588925e-03 8.24e-03 5.09e+00  -9.0 7.53e-03    -  1.00e+00 1.00e+00h  1
  26r 1.0639825e-03 8.24e-03 2.97e+00  -9.0 3.64e-03    -  1.00e+00 1.00e+00h  1
  27r 1.0652599e-03 8.24e-03 5.90e-01  -9.0 9.93e-04    -  1.00e+00 1.00e+00h  1
  28r 1.0653583e-03 8.24e-03 2.22e+00  -9.0 8.59e-05    -  1.00e+00 1.00e+00h  1
  29r 1.0653593e-03 8.24e-03 1.31e+00  -9.0 6.59e-07    -  1.00e+00 1.00e+00h  1
iter    objective    inf_pr   inf_du lg(mu)  ||d||  lg(rg) alpha_du alpha_pr  ls
  30r 1.0653591e-03 8.24e-03 4.44e-01  -9.0 2.78e-07    -  1.00e+00 1.00e+00h  1

Number of Iterations....: 30

                                   (scaled)                 (unscaled)
Objective...............:   1.0653566781116720e-03    1.0653566781116720e-03
Dual infeasibility......:   7.3735320886723433e-03    7.3735320886723433e-03
Constraint violation....:   8.2421434464208850e-03    8.2421434464208850e-03
Complementarity.........:   1.0000055012785586e-09    1.0000055012785586e-09
Overall NLP error.......:   8.2421434464208850e-03    8.2421434464208850e-03


Number of objective function evaluations             = 39
Number of objective gradient evaluations             = 12
Number of equality constraint evaluations            = 0
Number of inequality constraint evaluations          = 39
Number of equality constraint Jacobian evaluations   = 0
Number of inequality constraint Jacobian evaluations = 33
Number of Lagrangian Hessian evaluations             = 31
Total CPU secs in IPOPT (w/o function evaluations)   =      0.256
Total CPU secs in NLP function evaluations           =      0.329

EXIT: Converged to a point of local infeasibility. Problem may be infeasible.
